SECTION Graph
Nodes 720
Edges 1269
E 1 2 5
E 2 3 5
E 3 4 5
E 4 5 5
E 5 6 5
E 7 8 5
E 8 9 5
E 9 10 5
E 10 11 5
E 11 12 5
E 12 13 5
E 13 14 5
E 14 15 5
E 15 16 5
E 16 17 5
E 17 18 5
E 18 19 5
E 19 20 5
E 20 21 5
E 21 22 5
E 22 23 5
E 23 24 5
E 24 25 5
E 25 26 5
E 26 27 5
E 27 28 5
E 28 29 5
E 29 30 5
E 30 31 5
E 32 33 5
E 33 34 5
E 34 35 5
E 35 36 5
E 36 37 5
E 37 38 5
E 38 39 5
E 39 40 5
E 40 41 5
E 41 42 5
E 42 43 5
E 1 44 13
E 2 45 13
E 3 46 13
E 4 47 13
E 6 48 13
E 7 50 13
E 8 51 13
E 9 52 13
E 10 53 13
E 11 54 13
E 12 55 13
E 13 56 13
E 14 57 13
E 15 58 13
E 16 59 13
E 17 60 13
E 18 61 13
E 19 62 13
E 20 63 13
E 21 64 13
E 22 65 13
E 23 66 13
E 24 67 13
E 25 68 13
E 26 69 13
E 27 70 13
E 28 71 13
E 29 72 13
E 30 73 13
E 31 74 13
E 32 75 13
E 33 76 13
E 34 77 13
E 36 79 13
E 38 80 13
E 40 82 13
E 41 83 13
E 42 84 13
E 43 85 13
E 44 45 5
E 45 46 5
E 46 47 5
E 48 49 5
E 49 50 5
E 50 51 5
E 51 52 5
E 52 53 5
E 53 54 5
E 54 55 5
E 55 56 5
E 56 57 5
E 57 58 5
E 58 59 5
E 59 60 5
E 60 61 5
E 61 62 5
E 62 63 5
E 63 64 5
E 64 65 5
E 65 66 5
E 66 67 5
E 67 68 5
E 68 69 5
E 69 70 5
E 70 71 5
E 71 72 5
E 72 73 5
E 73 74 5
E 75 76 5
E 76 77 5
E 77 78 5
E 78 79 5
E 80 81 5
E 81 82 5
E 82 83 5
E 83 84 5
E 84 85 5
E 44 86 13
E 45 87 13
E 47 88 13
E 48 89 13
E 49 90 13
E 50 91 13
E 51 92 13
E 52 93 13
E 53 94 13
E 54 95 13
E 55 96 13
E 57 98 13
E 58 99 13
E 59 100 13
E 60 101 13
E 61 102 13
E 63 103 13
E 64 104 13
E 65 105 13
E 66 106 13
E 67 107 13
E 68 108 13
E 70 109 13
E 71 110 13
E 72 111 13
E 73 112 13
E 74 113 13
E 75 115 13
E 76 116 13
E 77 117 13
E 78 118 13
E 79 119 13
E 80 120 13
E 81 121 13
E 82 122 13
E 85 125 13
E 86 87 5
E 89 90 5
E 90 91 5
E 91 92 5
E 92 93 5
E 93 94 5
E 94 95 5
E 95 96 5
E 96 97 5
E 97 98 5
E 98 99 5
E 99 100 5
E 100 101 5
E 101 102 5
E 103 104 5
E 104 105 5
E 105 106 5
E 106 107 5
E 107 108 5
E 109 110 5
E 110 111 5
E 111 112 5
E 112 113 5
E 113 114 5
E 114 115 5
E 115 116 5
E 116 117 5
E 117 118 5
E 118 119 5
E 120 121 5
E 121 122 5
E 122 123 5
E 123 124 5
E 124 125 5
E 86 126 13
E 87 127 13
E 88 128 13
E 89 130 13
E 90 131 13
E 91 132 13
E 92 133 13
E 93 134 13
E 94 135 13
E 95 136 13
E 96 137 13
E 97 138 13
E 98 139 13
E 99 140 13
E 100 141 13
E 101 142 13
E 102 143 13
E 103 144 13
E 104 145 13
E 105 146 13
E 107 147 13
E 108 148 13
E 109 149 13
E 110 150 13
E 111 151 13
E 112 152 13
E 113 153 13
E 114 154 13
E 115 155 13
E 117 157 13
E 118 158 13
E 119 159 13
E 120 161 13
E 121 162 13
E 122 163 13
E 123 164 13
E 124 165 13
E 125 166 13
E 126 127 5
E 128 129 5
E 129 130 5
E 130 131 5
E 131 132 5
E 132 133 5
E 133 134 5
E 134 135 5
E 135 136 5
E 136 137 5
E 137 138 5
E 138 139 5
E 139 140 5
E 140 141 5
E 141 142 5
E 142 143 5
E 144 145 5
E 145 146 5
E 147 148 5
E 149 150 5
E 150 151 5
E 151 152 5
E 152 153 5
E 153 154 5
E 154 155 5
E 155 156 5
E 156 157 5
E 157 158 5
E 158 159 5
E 159 160 5
E 160 161 5
E 161 162 5
E 162 163 5
E 163 164 5
E 164 165 5
E 165 166 5
E 126 167 13
E 127 168 13
E 128 170 13
E 129 171 13
E 130 172 13
E 131 173 13
E 132 174 13
E 133 175 13
E 134 176 13
E 135 177 13
E 136 178 13
E 139 181 13
E 140 182 13
E 141 183 13
E 142 184 13
E 143 185 13
E 144 187 13
E 145 188 13
E 146 189 13
E 147 190 13
E 148 191 13
E 149 193 13
E 150 194 13
E 151 195 13
E 154 198 13
E 156 199 13
E 157 200 13
E 158 201 13
E 159 202 13
E 160 203 13
E 161 204 13
E 162 205 13
E 163 206 13
E 164 207 13
E 165 208 13
E 166 209 13
E 167 168 5
E 168 169 5
E 169 170 5
E 170 171 5
E 171 172 5
E 172 173 5
E 173 174 5
E 174 175 5
E 175 176 5
E 176 177 5
E 177 178 5
E 178 179 5
E 179 180 5
E 180 181 5
E 181 182 5
E 182 183 5
E 183 184 5
E 184 185 5
E 185 186 5
E 186 187 5
E 187 188 5
E 188 189 5
E 190 191 5
E 191 192 5
E 192 193 5
E 193 194 5
E 194 195 5
E 195 196 5
E 196 197 5
E 197 198 5
E 199 200 5
E 200 201 5
E 201 202 5
E 202 203 5
E 203 204 5
E 204 205 5
E 205 206 5
E 206 207 5
E 207 208 5
E 208 209 5
E 167 210 13
E 168 211 13
E 169 212 13
E 170 213 13
E 171 214 13
E 172 215 13
E 175 218 13
E 176 219 13
E 178 220 13
E 179 221 13
E 180 222 13
E 181 223 13
E 182 224 13
E 183 225 13
E 184 226 13
E 185 227 13
E 186 228 13
E 187 229 13
E 188 230 13
E 189 231 13
E 190 233 13
E 191 234 13
E 192 235 13
E 193 236 13
E 194 237 13
E 195 238 13
E 196 239 13
E 197 240 13
E 198 241 13
E 199 242 13
E 200 243 13
E 201 244 13
E 202 245 13
E 204 247 13
E 205 248 13
E 206 249 13
E 207 250 13
E 208 251 13
E 209 252 13
E 210 211 5
E 211 212 5
E 212 213 5
E 213 214 5
E 214 215 5
E 215 216 5
E 216 217 5
E 217 218 5
E 218 219 5
E 220 221 5
E 221 222 5
E 222 223 5
E 223 224 5
E 224 225 5
E 225 226 5
E 226 227 5
E 227 228 5
E 228 229 5
E 229 230 5
E 230 231 5
E 231 232 5
E 232 233 5
E 233 234 5
E 234 235 5
E 235 236 5
E 236 237 5
E 237 238 5
E 238 239 5
E 239 240 5
E 240 241 5
E 242 243 5
E 243 244 5
E 244 245 5
E 245 246 5
E 246 247 5
E 247 248 5
E 248 249 5
E 249 250 5
E 250 251 5
E 251 252 5
E 211 253 13
E 213 254 13
E 214 255 13
E 215 256 13
E 216 257 13
E 217 258 13
E 219 259 13
E 220 260 13
E 221 261 13
E 222 262 13
E 223 263 13
E 224 264 13
E 225 265 13
E 226 266 13
E 229 269 13
E 230 270 13
E 231 271 13
E 232 272 13
E 233 273 13
E 234 274 13
E 235 275 13
E 238 278 13
E 239 279 13
E 240 280 13
E 241 281 13
E 242 283 13
E 243 284 13
E 244 285 13
E 245 286 13
E 246 287 13
E 247 288 13
E 248 289 13
E 249 290 13
E 250 291 13
E 251 292 13
E 252 293 13
E 254 255 5
E 255 256 5
E 256 257 5
E 257 258 5
E 260 261 5
E 261 262 5
E 262 263 5
E 263 264 5
E 264 265 5
E 265 266 5
E 266 267 5
E 267 268 5
E 268 269 5
E 269 270 5
E 270 271 5
E 271 272 5
E 272 273 5
E 273 274 5
E 274 275 5
E 275 276 5
E 276 277 5
E 277 278 5
E 278 279 5
E 279 280 5
E 280 281 5
E 281 282 5
E 282 283 5
E 283 284 5
E 284 285 5
E 285 286 5
E 286 287 5
E 287 288 5
E 288 289 5
E 289 290 5
E 290 291 5
E 291 292 5
E 292 293 5
E 253 294 13
E 254 295 13
E 255 296 13
E 256 297 13
E 257 298 13
E 258 299 13
E 259 300 13
E 260 302 13
E 261 303 13
E 262 304 13
E 263 305 13
E 264 306 13
E 265 307 13
E 266 308 13
E 267 309 13
E 268 310 13
E 269 311 13
E 270 312 13
E 271 313 13
E 272 314 13
E 273 315 13
E 274 316 13
E 275 317 13
E 276 318 13
E 277 319 13
E 278 320 13
E 281 323 13
E 282 324 13
E 283 325 13
E 284 326 13
E 285 327 13
E 286 328 13
E 289 331 13
E 290 332 13
E 291 333 13
E 292 334 13
E 293 335 13
E 295 296 5
E 296 297 5
E 297 298 5
E 298 299 5
E 300 301 5
E 301 302 5
E 302 303 5
E 303 304 5
E 304 305 5
E 305 306 5
E 306 307 5
E 307 308 5
E 308 309 5
E 309 310 5
E 310 311 5
E 311 312 5
E 312 313 5
E 313 314 5
E 314 315 5
E 315 316 5
E 316 317 5
E 317 318 5
E 318 319 5
E 319 320 5
E 320 321 5
E 321 322 5
E 322 323 5
E 323 324 5
E 324 325 5
E 325 326 5
E 326 327 5
E 327 328 5
E 328 329 5
E 329 330 5
E 330 331 5
E 331 332 5
E 332 333 5
E 333 334 5
E 334 335 5
E 294 337 13
E 295 339 13
E 296 340 13
E 297 341 13
E 298 342 13
E 299 343 13
E 300 345 13
E 301 346 13
E 302 347 13
E 303 348 13
E 304 349 13
E 305 350 13
E 306 351 13
E 307 352 13
E 308 353 13
E 309 354 13
E 310 355 13
E 311 356 13
E 312 357 13
E 313 358 13
E 314 359 13
E 315 360 13
E 316 361 13
E 317 362 13
E 318 363 13
E 319 364 13
E 320 365 13
E 321 366 13
E 322 367 13
E 323 368 13
E 324 369 13
E 325 370 13
E 326 371 13
E 327 372 13
E 330 375 13
E 331 376 13
E 332 377 13
E 333 378 13
E 334 379 13
E 335 380 13
E 336 337 5
E 337 338 5
E 338 339 5
E 339 340 5
E 340 341 5
E 341 342 5
E 342 343 5
E 343 344 5
E 344 345 5
E 345 346 5
E 346 347 5
E 347 348 5
E 348 349 5
E 349 350 5
E 350 351 5
E 351 352 5
E 352 353 5
E 353 354 5
E 354 355 5
E 355 356 5
E 356 357 5
E 357 358 5
E 358 359 5
E 359 360 5
E 360 361 5
E 361 362 5
E 362 363 5
E 363 364 5
E 364 365 5
E 365 366 5
E 366 367 5
E 367 368 5
E 368 369 5
E 369 370 5
E 370 371 5
E 371 372 5
E 372 373 5
E 373 374 5
E 374 375 5
E 375 376 5
E 376 377 5
E 377 378 5
E 378 379 5
E 379 380 5
E 336 381 13
E 337 382 13
E 338 383 13
E 339 384 13
E 340 385 13
E 341 386 13
E 342 387 13
E 343 388 13
E 344 389 13
E 345 390 13
E 346 391 13
E 347 392 13
E 348 393 13
E 351 396 13
E 352 397 13
E 354 398 13
E 355 399 13
E 356 400 13
E 357 401 13
E 358 402 13
E 359 403 13
E 361 404 13
E 362 405 13
E 363 406 13
E 364 407 13
E 365 408 13
E 366 409 13
E 367 410 13
E 368 411 13
E 369 412 13
E 370 413 13
E 371 414 13
E 372 415 13
E 373 416 13
E 374 417 13
E 375 418 13
E 376 419 13
E 377 420 13
E 378 421 13
E 379 422 13
E 380 423 13
E 381 382 5
E 382 383 5
E 383 384 5
E 384 385 5
E 385 386 5
E 386 387 5
E 387 388 5
E 388 389 5
E 389 390 5
E 390 391 5
E 391 392 5
E 392 393 5
E 393 394 5
E 394 395 5
E 395 396 5
E 396 397 5
E 398 399 5
E 399 400 5
E 400 401 5
E 401 402 5
E 402 403 5
E 404 405 5
E 405 406 5
E 406 407 5
E 407 408 5
E 408 409 5
E 409 410 5
E 410 411 5
E 411 412 5
E 412 413 5
E 413 414 5
E 414 415 5
E 415 416 5
E 416 417 5
E 417 418 5
E 418 419 5
E 419 420 5
E 420 421 5
E 421 422 5
E 422 423 5
E 381 424 13
E 384 427 13
E 385 428 13
E 386 429 13
E 387 430 13
E 388 431 13
E 389 432 13
E 390 433 13
E 391 434 13
E 392 435 13
E 393 436 13
E 394 437 13
E 395 438 13
E 396 439 13
E 397 440 13
E 398 441 13
E 400 442 13
E 401 443 13
E 402 444 13
E 403 445 13
E 404 446 13
E 405 447 13
E 406 448 13
E 407 449 13
E 408 450 13
E 409 451 13
E 410 452 13
E 411 453 13
E 412 454 13
E 413 455 13
E 414 456 13
E 415 457 13
E 416 458 13
E 417 459 13
E 418 460 13
E 419 461 13
E 420 462 13
E 421 463 13
E 422 464 13
E 423 465 13
E 424 425 5
E 425 426 5
E 426 427 5
E 427 428 5
E 428 429 5
E 429 430 5
E 430 431 5
E 431 432 5
E 432 433 5
E 433 434 5
E 434 435 5
E 435 436 5
E 436 437 5
E 437 438 5
E 438 439 5
E 439 440 5
E 442 443 5
E 443 444 5
E 444 445 5
E 446 447 5
E 447 448 5
E 448 449 5
E 449 450 5
E 450 451 5
E 451 452 5
E 452 453 5
E 453 454 5
E 454 455 5
E 455 456 5
E 456 457 5
E 457 458 5
E 458 459 5
E 459 460 5
E 460 461 5
E 461 462 5
E 462 463 5
E 463 464 5
E 464 465 5
E 424 466 13
E 425 467 13
E 426 468 13
E 427 469 13
E 428 470 13
E 429 471 13
E 430 472 13
E 431 473 13
E 432 474 13
E 433 475 13
E 434 476 13
E 435 477 13
E 436 478 13
E 437 479 13
E 438 480 13
E 439 481 13
E 440 482 13
E 441 484 13
E 442 485 13
E 443 486 13
E 444 487 13
E 445 488 13
E 446 490 13
E 447 491 13
E 448 492 13
E 449 493 13
E 450 494 13
E 451 495 13
E 452 496 13
E 453 497 13
E 454 498 13
E 455 499 13
E 456 500 13
E 457 501 13
E 458 502 13
E 459 503 13
E 460 504 13
E 461 505 13
E 462 506 13
E 463 507 13
E 464 508 13
E 465 509 13
E 466 467 5
E 467 468 5
E 468 469 5
E 469 470 5
E 470 471 5
E 471 472 5
E 472 473 5
E 473 474 5
E 474 475 5
E 475 476 5
E 476 477 5
E 477 478 5
E 478 479 5
E 479 480 5
E 480 481 5
E 481 482 5
E 482 483 5
E 483 484 5
E 485 486 5
E 486 487 5
E 487 488 5
E 488 489 5
E 489 490 5
E 490 491 5
E 491 492 5
E 492 493 5
E 493 494 5
E 494 495 5
E 495 496 5
E 496 497 5
E 497 498 5
E 498 499 5
E 499 500 5
E 500 501 5
E 501 502 5
E 502 503 5
E 503 504 5
E 504 505 5
E 505 506 5
E 506 507 5
E 507 508 5
E 508 509 5
E 466 510 13
E 467 511 13
E 468 512 13
E 469 513 13
E 470 514 13
E 471 515 13
E 472 516 13
E 473 517 13
E 474 518 13
E 475 519 13
E 476 520 13
E 477 521 13
E 478 522 13
E 479 523 13
E 480 524 13
E 481 525 13
E 482 526 13
E 483 527 13
E 484 528 13
E 485 530 13
E 486 531 13
E 487 532 13
E 488 533 13
E 489 534 13
E 490 535 13
E 491 536 13
E 494 539 13
E 495 540 13
E 496 541 13
E 497 542 13
E 500 545 13
E 503 548 13
E 504 549 13
E 505 550 13
E 506 551 13
E 507 552 13
E 508 553 13
E 509 554 13
E 510 511 5
E 511 512 5
E 512 513 5
E 513 514 5
E 514 515 5
E 515 516 5
E 516 517 5
E 517 518 5
E 518 519 5
E 519 520 5
E 520 521 5
E 521 522 5
E 522 523 5
E 523 524 5
E 524 525 5
E 525 526 5
E 526 527 5
E 527 528 5
E 528 529 5
E 529 530 5
E 530 531 5
E 531 532 5
E 532 533 5
E 533 534 5
E 534 535 5
E 535 536 5
E 536 537 5
E 537 538 5
E 538 539 5
E 539 540 5
E 540 541 5
E 541 542 5
E 542 543 5
E 543 544 5
E 544 545 5
E 545 546 5
E 546 547 5
E 547 548 5
E 548 549 5
E 549 550 5
E 550 551 5
E 551 552 5
E 552 553 5
E 553 554 5
E 511 555 13
E 512 556 13
E 513 557 13
E 514 558 13
E 515 559 13
E 518 562 13
E 519 563 13
E 520 564 13
E 521 565 13
E 522 566 13
E 524 567 13
E 525 568 13
E 526 569 13
E 528 570 13
E 529 571 13
E 530 572 13
E 531 573 13
E 532 574 13
E 533 575 13
E 534 576 13
E 537 579 13
E 538 580 13
E 539 581 13
E 540 582 13
E 541 583 13
E 542 584 13
E 545 587 13
E 547 588 13
E 549 589 13
E 550 590 13
E 551 591 13
E 552 592 13
E 553 593 13
E 554 594 13
E 555 556 5
E 556 557 5
E 557 558 5
E 558 559 5
E 559 560 5
E 560 561 5
E 561 562 5
E 562 563 5
E 563 564 5
E 564 565 5
E 565 566 5
E 567 568 5
E 568 569 5
E 570 571 5
E 571 572 5
E 572 573 5
E 573 574 5
E 574 575 5
E 575 576 5
E 576 577 5
E 577 578 5
E 578 579 5
E 579 580 5
E 580 581 5
E 581 582 5
E 582 583 5
E 583 584 5
E 584 585 5
E 585 586 5
E 586 587 5
E 589 590 5
E 590 591 5
E 591 592 5
E 592 593 5
E 593 594 5
E 555 595 13
E 556 596 13
E 557 597 13
E 559 598 13
E 560 599 13
E 561 600 13
E 564 603 13
E 565 604 13
E 566 605 13
E 567 606 13
E 568 607 13
E 569 608 13
E 570 609 13
E 571 610 13
E 573 612 13
E 576 615 13
E 577 616 13
E 578 617 13
E 579 618 13
E 580 619 13
E 581 620 13
E 582 621 13
E 583 622 13
E 584 623 13
E 585 624 13
E 586 625 13
E 587 626 13
E 588 627 13
E 589 628 13
E 590 629 13
E 591 630 13
E 592 631 13
E 593 632 13
E 594 633 13
E 595 596 5
E 596 597 5
E 598 599 5
E 599 600 5
E 600 601 5
E 601 602 5
E 602 603 5
E 603 604 5
E 604 605 5
E 606 607 5
E 607 608 5
E 609 610 5
E 610 611 5
E 611 612 5
E 612 613 5
E 613 614 5
E 614 615 5
E 615 616 5
E 616 617 5
E 617 618 5
E 618 619 5
E 619 620 5
E 620 621 5
E 621 622 5
E 622 623 5
E 623 624 5
E 624 625 5
E 625 626 5
E 628 629 5
E 629 630 5
E 630 631 5
E 631 632 5
E 632 633 5
E 595 635 13
E 596 636 13
E 597 637 13
E 598 638 13
E 599 639 13
E 600 640 13
E 602 642 13
E 603 643 13
E 604 644 13
E 605 645 13
E 606 647 13
E 607 648 13
E 608 649 13
E 609 651 13
E 610 652 13
E 611 653 13
E 612 654 13
E 613 655 13
E 614 656 13
E 615 657 13
E 616 658 13
E 617 659 13
E 618 660 13
E 619 661 13
E 620 662 13
E 621 663 13
E 622 664 13
E 623 665 13
E 624 666 13
E 625 667 13
E 626 668 13
E 627 670 13
E 628 672 13
E 629 673 13
E 630 674 13
E 631 675 13
E 632 676 13
E 633 677 13
E 634 635 5
E 635 636 5
E 636 637 5
E 638 639 5
E 639 640 5
E 640 641 5
E 641 642 5
E 642 643 5
E 643 644 5
E 644 645 5
E 645 646 5
E 646 647 5
E 647 648 5
E 648 649 5
E 649 650 5
E 650 651 5
E 651 652 5
E 652 653 5
E 653 654 5
E 654 655 5
E 655 656 5
E 656 657 5
E 657 658 5
E 658 659 5
E 659 660 5
E 660 661 5
E 661 662 5
E 662 663 5
E 663 664 5
E 664 665 5
E 665 666 5
E 666 667 5
E 667 668 5
E 668 669 5
E 669 670 5
E 670 671 5
E 671 672 5
E 672 673 5
E 673 674 5
E 674 675 5
E 675 676 5
E 676 677 5
E 634 678 13
E 635 679 13
E 637 680 13
E 638 682 13
E 639 683 13
E 640 684 13
E 641 685 13
E 642 686 13
E 643 687 13
E 645 689 13
E 646 690 13
E 647 691 13
E 648 692 13
E 649 693 13
E 650 694 13
E 651 695 13
E 652 696 13
E 655 699 13
E 656 700 13
E 657 701 13
E 658 702 13
E 659 703 13
E 660 704 13
E 661 705 13
E 663 706 13
E 664 707 13
E 665 708 13
E 666 709 13
E 667 710 13
E 668 711 13
E 669 712 13
E 670 713 13
E 671 714 13
E 672 715 13
E 673 716 13
E 674 717 13
E 675 718 13
E 676 719 13
E 677 720 13
E 678 679 5
E 680 681 5
E 681 682 5
E 682 683 5
E 683 684 5
E 684 685 5
E 685 686 5
E 686 687 5
E 687 688 5
E 688 689 5
E 689 690 5
E 690 691 5
E 691 692 5
E 692 693 5
E 693 694 5
E 694 695 5
E 695 696 5
E 696 697 5
E 697 698 5
E 698 699 5
E 699 700 5
E 700 701 5
E 701 702 5
E 702 703 5
E 703 704 5
E 704 705 5
E 706 707 5
E 707 708 5
E 708 709 5
E 709 710 5
E 710 711 5
E 711 712 5
E 712 713 5
E 713 714 5
E 714 715 5
E 715 716 5
E 716 717 5
E 717 718 5
E 718 719 5
E 719 720 5
END

SECTION Terminals
Terminals 11
T 34
T 82
T 119
T 151
T 172
T 296
T 342
T 348
T 381
T 425
T 681
END

SECTION Tree Decomposition
c We do not guarantee that this tree decomposition has minimum width.
s td 610 21 720
b 1 1 2 44
b 2 6 5 48
b 3 88 128 47
b 4 7 8 50
b 5 441 398 484
b 6 31 30 74
b 7 32 33 75
b 8 510 466 511
b 9 35 36 34
b 10 543 544 542
b 11 544 542 545
b 12 546 547 545
b 13 37 36 38
b 14 588 627 547
b 15 39 40 38
b 16 601 602 600
b 17 627 547 670
b 18 634 678 635
b 19 678 679 635
b 20 43 42 85
b 21 680 681 637
b 22 635 595 636
b 23 681 637 682
b 24 688 689 687
b 25 697 698 696
b 26 698 699 696
b 27 705 704 661
b 28 706 707 663
b 29 720 719 677
b 30 210 167 211
b 31 253 294 211
b 32 259 300 219
b 33 5 4 48
b 34 294 337 211
b 35 329 328 330
b 36 336 381 337
b 37 2 44 45 3
b 38 466 467 511 424
b 39 381 382 337 424
b 40 719 677 676 718
b 41 8 51 9 50
b 42 382 383 337 424
b 43 30 74 73 29
b 44 33 75 76 34
b 45 595 636 596 555
b 46 636 596 637 555
b 47 707 664 708 663
b 48 42 84 41 85
b 49 84 41 83 85
b 50 167 126 168 211
b 51 704 660 703 661
b 52 41 83 40 85
b 53 83 40 85 82
b 54 44 86 45 3
b 55 40 85 82 38
b 56 75 76 34 115
b 57 677 676 633 718
b 58 74 73 29 113
b 59 85 82 125 38
b 60 11 10 12 54
b 61 180 179 222 181
b 62 344 345 343 389
b 63 87 86 45 127
b 64 349 350 304 348
b 65 22 65 23 21
b 66 353 354 308 352
b 67 89 48 130 90
b 68 653 611 654 652
b 69 360 315 361 359
b 70 373 374 416 372
b 71 683 684 639 682
b 72 24 25 23 67
b 73 380 423 335 379
b 74 97 138 96 98
b 75 394 395 437 393
b 76 397 440 352 396
b 77 398 399 354 484
b 78 403 445 402 359
b 79 404 446 405 361
b 80 641 685 640 642
b 81 26 69 25 27
b 82 102 143 101 61
b 83 638 598 639 682
b 84 103 144 104 63
b 85 177 135 176 178
b 86 702 703 658 701
b 87 106 66 107 105
b 88 425 467 426 424
b 89 108 148 68 107
b 90 109 149 110 70
b 91 28 29 71 27
b 92 442 485 443 400
b 93 628 589 629 672
b 94 114 113 115 154
b 95 116 76 117 115
b 96 76 77 34 117 115
b 97 119 79 118 159
b 98 120 80 121 161
b 99 483 527 482 484
b 100 715 714 716 672
b 101 489 534 488 490
b 102 123 124 164 122
b 103 492 493 448 491
b 104 498 499 454 497
b 105 501 502 457 500
b 106 509 465 554 508
b 107 717 718 674 716
b 108 613 614 655 612
b 109 128 47 170 129
b 110 516 517 472 515
b 111 523 479 524 522
b 112 609 570 610 651
b 113 529 571 530 528
b 114 169 212 168 170
b 115 712 669 713 711
b 116 535 534 490 536
b 117 537 538 579 536
b 118 137 138 96 136
b 119 547 548 670 545
b 120 558 557 514 559
b 121 560 599 561 559
b 122 562 563 561 518
b 123 36 34 79 38
b 124 597 596 637 557
b 125 596 637 555 556 557
b 126 566 605 565 522
b 127 594 633 593 554
b 128 567 606 568 524
b 129 569 608 568 526
b 130 572 571 530 573
b 131 574 575 532 573
b 132 577 578 616 576
b 133 147 148 190 107
b 134 709 708 666 710
b 135 585 586 624 584
b 136 587 626 586 545
b 137 146 189 145 105
b 138 152 153 112 151
b 139 691 690 692 647
b 140 155 156 115 154
b 141 602 600 642 603
b 142 700 699 656 701
b 143 160 203 159 161
b 144 644 604 643 645
b 145 646 690 647 645
b 146 650 694 649 651
b 147 166 165 125 209
b 148 662 661 620 663
b 149 671 714 670 672
b 150 693 694 649 692
b 151 173 174 131 172
b 152 695 694 651 696
b 153 46 45 3 47
b 154 186 228 187 185
b 155 192 193 191 235
b 156 49 48 90 50
b 157 196 197 239 195
b 158 198 241 197 154
b 159 199 242 200 156
b 160 13 56 14 12
b 161 689 690 645 687
b 162 216 257 217 215
b 163 218 217 175 219
b 164 220 260 221 178
b 165 227 228 185 226
b 166 15 14 16 58
b 167 232 231 272 233
b 168 236 237 193 235
b 169 62 19 61 63
b 170 246 287 247 245
b 171 252 293 251 209
b 172 254 295 213 255
b 173 4 3 47 48
b 174 258 299 257 217
b 175 17 18 60 16
b 176 267 268 309 266
b 177 276 277 318 275
b 178 279 280 239 278
b 179 282 324 283 281
b 180 288 287 247 289
b 181 300 301 345 219
b 182 686 685 642 687
b 183 20 19 21 63
b 184 78 77 79 118
b 185 321 322 366 320
b 186 81 80 121 82
b 187 328 330 286 327
b 188 338 383 337 339
b 189 676 632 633 675 718
b 190 86 45 127 3 126
b 191 45 127 3 126 47
b 192 127 3 126 168 47
b 193 3 126 168 47 48
b 194 126 168 47 48 211
b 195 637 555 556 557 682
b 196 383 337 424 384 339
b 197 611 654 652 612 610
b 198 654 652 655 612 610
b 199 467 426 468 511 424
b 200 138 139 96 136 98
b 201 555 556 511 557 682
b 202 556 511 512 557 682
b 203 148 190 68 107 191
b 204 527 482 526 484 528
b 205 153 112 113 151 154
b 206 669 713 711 670 668
b 207 713 711 714 670 668
b 208 694 649 692 651 696
b 209 711 714 670 668 710
b 210 190 68 107 191 233
b 211 203 202 159 161 204
b 212 212 168 170 213 211
b 213 426 468 511 427 424
b 214 228 229 187 185 226
b 215 56 14 57 55 12
b 216 690 692 647 645 687
b 217 69 25 68 70 27
b 218 287 247 289 245 286
b 219 73 29 72 112 113
b 220 19 18 61 21 63
b 221 685 640 684 642 687
b 222 80 121 82 38 161
b 223 337 424 384 211 339
b 224 168 47 170 48 213 211
b 225 47 170 129 48 213 211
b 226 170 129 48 171 213 211
b 227 129 48 130 171 213 211
b 228 374 416 417 372 375
b 229 440 439 482 352 396
b 230 445 444 402 488 359
b 231 446 447 405 361 490
b 232 10 9 53 12 54
b 233 423 422 465 335 379
b 234 485 443 486 530 400
b 235 493 449 448 491 494
b 236 124 165 164 122 125
b 237 517 472 473 515 518
b 238 499 455 454 500 497
b 239 502 458 503 457 500
b 240 395 437 438 393 396
b 241 350 305 351 304 348
b 242 538 579 580 539 536
b 243 589 590 629 549 672
b 244 563 519 561 564 518
b 245 149 110 150 193 70
b 246 144 104 145 187 63
b 247 598 599 639 559 682
b 248 578 616 617 579 576
b 249 575 533 532 573 576
b 250 399 355 354 400 484
b 251 614 656 655 612 615
b 252 626 586 625 668 545
b 253 608 607 568 649 526
b 254 660 659 703 618 661
b 255 605 604 565 522 645
b 256 664 708 665 622 663
b 257 570 571 610 528 651
b 258 699 656 655 701 696
b 259 174 131 172 132 175
b 260 143 101 61 142 185
b 261 179 221 222 178 181
b 262 606 607 568 647 524
b 263 189 188 145 231 105
b 264 51 52 9 50 92
b 265 241 240 197 154 281
b 266 242 200 156 243 283
b 267 237 194 193 238 235
b 268 260 221 261 178 302
b 269 268 309 310 266 269
b 270 277 318 275 319 278
b 271 280 240 239 278 281
b 272 240 197 239 154 278 281
b 273 197 239 195 154 278 281
b 274 239 195 238 154 278 281
b 275 293 251 209 292 335
b 276 295 213 255 296 339
b 277 299 257 217 298 343
b 278 301 346 345 219 302
b 279 322 366 320 367 323
b 280 221 261 222 178 181 302
b 281 77 34 79 118 117 115
b 282 34 79 118 117 38 115
b 283 79 118 117 159 38 115
b 284 118 117 158 159 38 115
b 285 117 158 157 159 38 115
b 286 158 157 159 201 38 115
b 287 548 670 545 503 549
b 288 330 375 286 327 331
b 289 659 703 617 618 661 658
b 290 703 617 618 661 658 701
b 291 652 655 612 610 651 696
b 292 25 68 23 67 70 27
b 293 165 164 122 125 208 209
b 294 104 145 187 64 105 63
b 295 640 684 639 600 642 687
b 296 684 639 600 642 682 687
b 297 632 633 675 718 631 593
b 298 633 675 718 631 593 554
b 299 675 718 674 631 593 554
b 300 718 674 631 593 554 716
b 301 29 72 112 71 113 27
b 302 72 112 111 71 113 27
b 303 121 82 122 162 38 161
b 304 82 122 125 162 38 161
b 305 131 172 130 90 132 175
b 306 708 665 666 710 622 663
b 307 665 623 666 710 622 663
b 308 571 610 530 573 528 651
b 309 714 670 668 710 716 672
b 310 188 145 187 230 231 105
b 311 145 187 230 231 64 105 63
b 312 194 150 193 195 238 235
b 313 468 511 512 427 469 424
b 314 52 9 53 93 50 92
b 315 599 639 600 561 559 682
b 316 639 600 642 561 559 682 687
b 317 600 642 603 561 559 682 687
b 318 642 643 603 561 559 682 687
b 319 257 217 215 298 256 343
b 320 14 57 55 12 16 58
b 321 57 55 12 98 16 58
b 322 604 565 643 603 522 645
b 323 66 65 107 23 67 105
b 324 447 405 448 491 361 490
b 325 309 310 354 308 266 269
b 326 586 625 624 668 545 584
b 327 625 624 667 668 545 584
b 328 18 61 60 16 21 63
b 329 533 534 532 488 573 576
b 330 112 111 71 113 151 27 154
b 331 111 71 113 151 110 27 154
b 332 71 113 151 110 70 27 154
b 333 113 151 110 70 27 115 154
b 334 387 388 342 386 430
b 335 436 437 478 393 435
b 336 531 486 532 530 573
b 337 347 346 392 302 348
b 338 385 384 428 386 340
b 339 657 656 615 658 701
b 340 656 655 612 615 658 701 696
b 341 95 54 96 94 136
b 342 356 355 311 357 400
b 343 378 333 377 379 421
b 344 358 402 313 359 357
b 345 376 375 331 377 419
b 346 91 90 132 50 92
b 347 362 405 363 317 361
b 348 364 407 363 319 365
b 349 368 367 323 369 411
b 350 370 413 369 325 371
b 351 432 431 474 389 433
b 352 495 496 540 451 494
b 353 163 164 122 162 206
b 354 434 391 433 435 476
b 355 390 345 391 389 433
b 356 99 100 98 58 140
b 357 429 428 471 386 430
b 358 410 367 411 452 409
b 359 406 405 448 407 363
b 360 418 417 375 419 460
b 361 415 416 372 414 457
b 362 520 519 564 476 521
b 363 420 462 377 419 421
b 364 450 449 408 451 494
b 365 459 458 417 460 503
b 366 470 469 514 428 471
b 367 487 486 444 532 488
b 368 619 618 661 580 620
b 369 506 551 507 505 462
b 370 525 568 526 481 524
b 371 133 132 92 134 175
b 372 513 512 557 469 514
b 373 480 479 438 481 524
b 374 477 478 435 476 521
b 375 475 519 474 433 476
b 376 582 621 583 581 540
b 377 592 631 593 552 591
b 378 630 674 631 591 629
b 379 461 505 462 419 460
b 380 464 422 465 463 508
b 381 182 224 140 181 183
b 382 184 142 183 185 226
b 383 412 454 413 369 411
b 384 141 100 142 140 183
b 385 205 162 206 248 204
b 386 207 164 208 206 250
b 387 214 171 213 255 215
b 388 223 222 263 224 181
b 389 225 224 265 183 226
b 390 456 455 414 457 500
b 391 59 60 100 16 58
b 392 234 191 235 233 274
b 393 553 593 552 554 508
b 394 504 505 460 503 549
b 395 244 285 243 201 245
b 396 249 206 250 248 290
b 397 550 590 551 505 549
b 398 453 454 411 452 497
b 399 262 261 222 304 263
b 400 264 263 224 265 306
b 401 270 271 230 269 312
b 402 273 315 272 233 274
b 403 401 443 402 357 400
b 404 673 674 629 716 672
b 405 316 315 274 317 361
b 406 284 326 285 243 283
b 407 542 545 584 497 541
b 408 291 250 292 290 333
b 409 297 341 298 256 296
b 410 303 261 304 302 348
b 411 307 308 265 306 352
b 412 648 607 649 692 647
b 413 607 568 649 692 647 526 524
b 414 568 649 692 647 526 481 524
b 415 314 315 272 313 359
b 416 332 290 333 331 377
b 417 334 292 333 335 379
b 418 101 61 60 100 142 185
b 419 439 482 438 481 352 396
b 420 366 320 367 323 365 409
b 421 472 473 471 515 430 518
b 422 616 617 579 576 615 658
b 423 200 156 157 243 201 283
b 424 251 208 209 250 292 335
b 425 247 289 248 204 245 286
b 426 305 351 304 263 306 348
b 427 318 275 363 319 278 317
b 428 624 667 623 666 668 545 584
b 429 667 623 666 668 710 545 584
b 430 473 471 515 430 431 474 518
b 431 156 157 243 201 283 115 154
b 432 511 512 557 427 469 424 682
b 433 512 557 427 469 514 424 682
b 434 557 427 469 514 424 559 682
b 435 65 107 23 67 64 105 21
b 436 9 53 93 12 54 50 92
b 437 53 93 12 54 94 50 92
b 438 93 12 54 94 50 92 134
b 439 289 248 290 204 245 286 331
b 440 655 612 610 615 658 701 651 696
b 441 612 610 573 615 658 701 651 696
b 442 157 159 243 201 38 283 115 154
b 443 623 666 668 710 545 584 622 663
b 444 202 159 201 161 204 245
b 445 229 187 230 269 185 226
b 446 139 96 136 98 140 181
b 447 135 176 94 136 178 134
b 448 324 323 369 283 325 281
b 449 351 304 263 306 348 352 396
b 450 355 311 310 354 357 400 484
b 451 422 465 463 508 335 379 421
b 452 465 463 554 508 335 379 421
b 453 176 94 136 178 134 175 219
b 454 458 416 417 460 503 457 500
b 455 48 130 90 171 213 211 50
b 456 565 643 603 564 521 522 645
b 457 534 532 488 573 490 536 576
b 458 55 12 54 96 98 16 58
b 459 455 454 413 414 457 500 497
b 460 320 367 323 319 365 409 278
b 461 275 363 319 235 278 274 317
b 462 590 591 629 551 505 549 672
b 463 449 408 448 407 491 451 494
b 464 443 486 444 402 530 357 400
b 465 427 469 514 424 384 428 559 682
b 466 469 514 424 384 428 471 559 682
b 467 514 424 384 428 471 515 559 682
b 468 617 618 661 579 576 615 658 701
b 469 151 110 150 195 70 27 115 154
b 470 110 150 193 195 70 27 115 154
b 471 311 310 354 269 312 357 400 484
b 472 150 193 195 238 70 27 115 154 235
b 473 193 195 238 70 27 191 115 154 235
b 474 479 437 478 438 481 524 522
b 475 346 392 345 391 219 302 348
b 476 621 583 581 620 540 622 663
b 477 583 581 620 540 584 541 622 663
b 478 172 130 90 132 171 215 175
b 479 130 90 132 171 213 215 211 50 175
b 480 90 132 171 213 215 211 50 92 175
b 481 132 171 213 215 211 50 92 134 175
b 482 171 213 255 215 211 50 92 134 175
b 483 217 215 298 256 343 175 219
b 484 341 342 386 340 298 256 296
b 485 649 692 647 526 481 524 651 696
b 486 164 122 125 208 209 162 206 250
b 487 674 631 593 591 629 554 716 672
b 488 631 593 552 591 629 554 716 672
b 489 593 552 591 629 554 508 716 672
b 490 408 448 407 491 365 409 451 494
b 491 463 554 507 508 462 335 379 421
b 492 61 60 100 142 16 21 63 185
b 493 60 100 142 16 58 21 63 185
b 494 261 222 304 263 178 181 302 348
b 495 222 304 263 224 178 181 302 348
b 496 392 345 391 219 302 348 393 435
b 497 610 530 573 615 658 701 528 651 696
b 498 122 125 208 209 162 206 250 38 161
b 499 552 591 629 551 554 507 508 716 672
b 500 591 629 551 554 507 508 505 716 549 672
b 501 551 554 507 508 505 462 716 549 672
b 502 208 209 162 206 250 292 38 161 335
b 503 310 354 308 266 269 312 357 400 484
b 504 354 308 266 269 312 357 400 352 484
b 505 162 206 250 292 248 38 161 204 335
b 506 206 250 292 248 290 38 161 204 335
b 507 250 292 248 290 333 38 161 204 335
b 508 292 248 290 333 38 161 204 335 379
b 509 271 230 231 272 313 269 312
b 510 388 342 386 430 431 343 389
b 511 326 285 243 327 283 325 371
b 512 405 448 407 491 363 317 361 490
b 513 618 661 579 580 620 576 615 658 701
b 514 661 579 580 620 663 576 615 658 701
b 515 195 238 70 27 191 115 154 235 278 281
b 516 496 540 452 497 541 451 494
b 517 670 668 710 545 716 503 549 672
b 518 424 384 428 471 515 211 339 559 682
b 519 486 444 402 532 488 530 573 357 400
b 520 444 402 532 488 530 573 359 357 400
b 521 402 532 488 530 573 313 359 357 400
b 522 692 647 526 481 524 645 651 687 696
b 523 581 580 620 539 540 584 541 622 663
b 524 416 417 372 375 460 503 414 457 500
b 525 417 372 375 419 460 503 414 457 500
b 526 384 428 471 515 386 340 211 339 559 682
b 527 428 471 515 386 340 430 211 339 559 682
b 528 68 107 23 67 70 27 191 233
b 529 315 272 233 274 317 361 313 359
b 530 519 561 564 474 518 433 476 521
b 531 482 526 438 481 352 396 484 528
b 532 437 478 438 481 524 393 396 435 522
b 533 579 580 620 539 663 536 576 615 658 701
b 534 478 438 481 524 393 396 435 476 521 522
b 535 308 266 265 306 269 312 357 400 352 484
b 536 266 265 306 269 312 357 400 226 352 484
b 537 213 255 215 211 296 339 50 92 134 175
b 538 255 215 211 256 296 339 50 92 134 175
b 539 304 263 224 306 178 181 302 348 352 396
b 540 263 224 265 306 178 181 302 348 352 396
b 541 285 243 201 245 286 327 283 325 371
b 542 367 323 369 411 452 319 365 409 278
b 543 187 230 231 64 105 269 63 185 226
b 544 454 413 369 411 414 457 500 452 497
b 545 413 369 411 325 371 414 457 500 452 497
b 546 372 375 327 419 460 503 371 414 457 500
b 547 107 23 67 70 27 191 64 105 233 21
b 548 668 710 545 716 503 549 672 584 622 663
b 549 554 507 508 505 462 335 379 421 716 549 672
b 550 100 142 98 16 58 21 63 140 183 185
b 551 142 98 16 58 21 63 140 183 185 226
b 552 159 243 201 38 161 204 245 283 115 154
b 553 248 290 333 38 161 204 245 286 331 335 379
b 554 290 333 38 161 204 245 286 331 335 377 379
b 555 333 38 161 204 245 286 331 335 377 379 421
b 556 643 603 561 564 559 682 521 522 645 687
b 557 342 386 340 430 431 298 256 296 343 389
b 558 230 231 272 64 105 313 269 312 63 185 226
b 559 231 272 64 105 233 313 269 312 63 185 226
b 560 505 462 335 379 419 421 460 716 503 549 672
b 561 462 335 377 379 419 421 460 716 503 549 672
b 562 12 54 96 94 98 16 58 50 92 134
b 563 54 96 94 136 98 16 58 50 92 134
b 564 96 94 136 98 16 58 140 181 50 92 134
b 565 345 391 343 389 433 219 302 348 393 435
b 566 391 343 389 433 219 302 348 393 435 476
b 567 532 488 530 573 313 359 490 536 576 357 400
b 568 448 407 491 363 365 409 451 494 317 361 490
b 569 407 491 363 319 365 409 451 494 317 361 490
b 570 491 363 319 365 409 451 494 317 361 490 536
b 571 215 298 211 256 296 339 343 50 92 134 175 219
b 572 323 369 411 283 325 452 319 365 409 278 281
b 573 545 716 503 549 672 500 584 497 541 622 663
b 574 471 515 386 340 430 431 211 339 474 518 559 682
b 575 94 136 98 16 58 140 178 181 50 92 134 175 219
b 576 363 319 365 409 451 494 235 278 274 317 361 490 536
b 577 70 27 191 115 154 235 278 281 64 105 233 21
b 578 191 115 154 235 278 281 64 105 233 274 21
b 579 561 564 474 518 559 682 433 476 521 522 645 687
b 580 224 265 306 140 178 181 183 226 302 348 352 396
b 581 243 201 38 161 204 245 286 327 283 325 371 115 154
b 582 375 286 327 331 377 419 460 503 371 414 457 500
b 583 580 620 539 540 584 541 622 663 536 576 615 658 701
b 584 539 540 584 541 622 663 494 536 576 615 658 701
b 585 540 584 452 497 541 622 663 451 494 536 576 615 658 701
b 586 386 340 430 431 298 211 256 296 339 474 518 559 682 343 389
b 587 431 298 211 256 296 339 474 518 559 682 343 389 433
b 588 526 438 481 524 352 396 484 528 645 651 687 696
b 589 272 64 105 233 274 317 361 313 359 269 312 63 185 226
b 590 298 211 256 296 339 474 518 559 682 343 389 433 50 92 134 175 219
b 591 369 411 283 325 371 414 457 500 452 497 319 365 409 278 281
b 592 38 161 204 245 286 327 331 335 377 379 421 283 325 371 115 154
b 593 286 327 331 335 377 379 419 421 460 503 283 325 371 414 457 500 115 154
b 594 335 377 379 419 421 460 716 503 549 672 283 325 371 414 457 500 115 154
b 595 438 481 524 352 393 396 435 476 484 521 522 528 645 651 687 696
b 596 716 503 549 672 283 325 371 414 457 500 584 497 541 622 663 115 154
b 597 283 325 371 414 457 500 584 452 497 541 622 663 319 365 409 115 154 278 281
b 598 474 518 559 682 343 389 433 50 92 134 175 219 476 521 522 645 687
b 599 343 389 433 50 92 134 175 219 302 348 393 435 476 521 522 645 687
b 600 98 16 58 21 63 140 178 181 183 185 226 50 92 134 175 219
b 601 265 306 269 312 357 400 140 178 181 183 226 302 348 352 396 484
b 602 530 573 313 359 490 536 576 615 658 701 357 400 528 651 696
b 603 584 452 497 541 622 663 319 365 409 451 494 115 154 278 281 536 576 615 658 701
b 604 319 365 409 451 494 115 154 235 278 281 274 317 361 490 536 576 615 658 701
b 605 115 154 235 278 281 64 105 233 274 317 361 490 536 576 615 658 701 21
b 606 64 105 233 274 317 361 313 359 490 536 576 615 658 701 269 312 21 63 185 226
b 607 313 359 490 536 576 615 658 701 269 312 357 400 21 63 185 226 528 651 696
b 608 269 312 357 400 21 63 140 178 181 183 185 226 302 348 352 396 484 528 651 696
b 609 21 63 140 178 181 183 185 226 50 92 134 175 219 302 348 352 396 484 528 651 696
b 610 50 92 134 175 219 302 348 352 393 396 435 476 484 521 522 528 645 651 687 696
1 37
37 54
54 190
190 191
191 192
192 193
193 194
194 224
224 225
225 226
226 227
227 455
455 479
479 480
480 481
481 482
482 537
537 538
538 571
571 590
590 587
590 598
598 599
599 610
610 595
610 609
609 608
608 601
609 600
587 586
601 580
600 575
608 607
607 606
607 602
606 589
606 605
605 604
604 603
603 585
603 597
597 591
597 596
604 576
596 594
594 593
593 592
585 584
593 582
592 581
584 583
595 588
586 574
575 564
589 559
605 578
591 572
596 573
576 570
594 561
592 555
598 579
559 558
578 577
570 569
561 560
555 554
569 568
554 553
601 536
600 551
586 557
580 540
602 567
591 545
582 546
581 552
583 533
574 527
564 563
599 566
536 535
551 550
540 539
595 534
527 526
563 562
566 565
526 518
602 497
581 541
583 523
572 542
573 548
579 556
558 543
577 515
515 473
473 472
560 549
549 501
501 500
500 499
553 508
508 507
507 506
506 505
567 521
545 544
521 520
520 519
546 525
525 524
533 514
514 513
535 504
504 503
534 532
548 517
499 489
497 441
518 467
505 502
472 470
565 496
523 477
549 491
513 468
503 471
489 488
441 440
467 466
502 498
470 469
488 487
466 465
498 486
589 529
588 522
588 531
522 485
579 530
577 547
547 528
568 490
568 512
552 442
550 493
539 495
493 492
495 494
541 511
542 460
548 443
556 318
556 456
543 311
500 462
544 459
519 464
524 454
532 474
496 475
477 476
491 452
471 450
440 340
469 333
575 453
485 414
547 435
490 463
562 438
442 431
562 458
465 434
443 429
318 317
452 451
333 332
414 413
438 437
434 433
429 428
317 316
332 331
437 436
433 432
331 330
585 516
571 483
576 461
574 430
558 509
553 439
557 484
557 510
567 457
479 478
539 449
543 445
515 274
472 312
503 325
517 309
502 424
468 290
468 422
440 291
498 304
487 300
486 293
531 419
528 292
442 286
492 328
492 418
494 280
460 420
443 307
456 322
311 310
311 294
453 447
435 323
431 423
458 321
428 327
316 296
316 315
436 314
432 313
330 302
483 319
461 427
430 421
439 425
457 329
497 308
478 305
449 426
274 273
290 289
304 303
300 299
286 285
307 306
321 320
327 326
296 295
302 301
273 272
299 298
285 284
298 297
284 283
283 282
282 281
564 446
572 448
512 324
552 444
565 355
518 223
541 395
542 349
542 358
480 346
501 369
508 417
507 408
506 396
505 385
521 344
544 383
544 398
520 230
519 336
519 367
525 360
524 361
524 228
513 368
481 371
532 240
532 335
517 287
489 393
470 245
580 381
580 389
488 377
466 366
487 378
487 404
486 353
529 402
522 216
531 204
485 208
530 244
530 362
530 375
528 210
512 347
512 359
493 391
495 388
482 387
494 399
494 410
511 406
486 386
462 243
462 397
459 238
459 390
464 234
464 403
454 239
454 365
474 373
475 278
475 337
476 376
450 250
450 342
340 251
340 258
340 339
414 370
463 235
463 364
451 233
451 380
413 253
413 262
413 412
537 276
433 372
436 232
432 202
330 205
516 352
509 401
484 409
510 334
445 214
325 269
309 209
312 267
424 275
422 248
291 198
293 236
419 229
292 217
328 220
418 260
280 268
280 261
420 279
322 255
310 263
294 246
224 212
423 266
315 247
314 264
313 213
319 277
427 270
421 237
425 218
329 249
308 257
305 259
426 241
289 254
303 222
306 256
320 215
326 252
272 271
272 265
297 189
295 221
446 200
301 219
324 231
444 211
281 96
223 196
210 203
529 405
202 201
209 207
198 197
213 199
529 415
201 195
207 206
195 125
587 351
582 288
582 345
578 392
573 407
561 363
555 343
569 348
560 379
560 394
554 416
551 382
540 400
545 350
533 242
527 357
563 341
566 354
535 411
550 384
550 356
534 374
526 338
565 62
473 155
242 117
514 148
504 66
199 88
219 58
58 43
221 182
221 80
474 111
452 106
333 94
435 65
431 140
434 120
317 141
483 163
457 101
457 116
309 100
309 149
290 86
300 107
293 147
292 72
328 175
322 144
225 109
447 85
323 87
296 71
315 121
319 162
308 113
308 130
273 157
306 134
320 166
326 135
203 89
301 91
191 153
298 127
283 97
282 123
448 179
230 78
228 70
240 75
196 188
287 119
245 90
216 139
216 145
216 161
204 99
203 133
208 146
208 150
208 152
244 122
96 56
243 93
96 95
238 104
234 92
239 105
278 181
250 77
251 108
258 142
235 103
233 73
253 129
262 128
276 172
232 60
205 138
214 154
214 165
269 176
267 168
275 171
248 132
236 102
229 76
217 81
220 169
220 183
260 82
268 164
261 61
279 185
255 126
263 137
246 84
212 114
266 159
197 68
247 83
264 41
281 184
277 174
270 177
237 110
218 170
218 180
249 131
257 112
259 151
241 64
254 51
222 186
222 98
256 47
215 160
252 136
271 178
265 158
189 57
200 74
200 118
231 79
304 59
199 38
196 42
206 115
125 46
125 124
211 143
56 44
529 69
57 40
59 55
55 53
42 39
53 52
46 45
52 49
49 48
559 167
288 187
455 67
455 156
193 173
190 63
194 50
77 5
181 32
161 24
123 13
109 3
407 11
195 23
23 21
43 6
141 16
223 34
34 31
119 17
17 14
119 12
258 26
26 25
11 10
123 9
38 8
44 7
50 30
41 4
51 27
47 28
173 33
33 2
187 35
55 15
40 29
45 22
48 20
39 36
22 19
19 18
END

EOF
